; Copyright (c) 2026 The RIINA Authors. All rights reserved.
; Auto-generated from 02_FORMAL/coq/domains/WasmBackendVerification.v (43 validations)
; Generated by scripts/generate-full-stack.py
;
; Translation Validation for WasmBackendVerification
; Layer 9: Verifies compiler backend preserves formal semantics.
; Each assertion checks source IR ≡ target code for a proven property.

(set-logic QF_LIA)
(set-option :produce-models true)

; IR node representation
(declare-sort IRNode 0)
(declare-sort TargetNode 0)

; sec_le: source semantics (matches Coq)
(declare-fun source_sec_le () Bool)
(declare-fun target_sec_le () Bool)
(assert (= source_sec_le target_sec_le))

; export_is_public: source semantics (matches Coq)
(declare-fun source_export_is_public () Bool)
(declare-fun target_export_is_public () Bool)
(assert (= source_export_is_public target_export_is_public))

; ni_preserved: source semantics (matches Coq)
(declare-fun source_ni_preserved () Bool)
(declare-fun target_ni_preserved () Bool)
(assert (= source_ni_preserved target_ni_preserved))

; memory_partitioned: source semantics (matches Coq)
(declare-fun source_memory_partitioned () Bool)
(declare-fun target_memory_partitioned () Bool)
(assert (= source_memory_partitioned target_memory_partitioned))

; effect_le: source semantics (matches Coq)
(declare-fun source_effect_le () Bool)
(declare-fun target_effect_le () Bool)
(assert (= source_effect_le target_effect_le))

; import_effect_safe: source semantics (matches Coq)
(declare-fun source_import_effect_safe () Bool)
(declare-fun target_import_effect_safe () Bool)
(assert (= source_import_effect_safe target_import_effect_safe))

; regions_disjoint: source semantics (matches Coq)
(declare-fun source_regions_disjoint () Bool)
(declare-fun target_regions_disjoint () Bool)
(assert (= source_regions_disjoint target_regions_disjoint))

; no_cross_label_access: source semantics (matches Coq)
(declare-fun source_no_cross_label_access () Bool)
(declare-fun target_no_cross_label_access () Bool)
(assert (= source_no_cross_label_access target_no_cross_label_access))

; string_in_segment: source semantics (matches Coq)
(declare-fun source_string_in_segment () Bool)
(declare-fun target_string_in_segment () Bool)
(assert (= source_string_in_segment target_string_in_segment))

; string_compiles_to_ptr: source semantics (matches Coq)
(declare-fun source_string_compiles_to_ptr () Bool)
(declare-fun target_string_compiles_to_ptr () Bool)
(assert (= source_string_compiles_to_ptr target_string_compiles_to_ptr))

; closure_layout_valid: source semantics (matches Coq)
(declare-fun source_closure_layout_valid () Bool)
(declare-fun target_closure_layout_valid () Bool)
(assert (= source_closure_layout_valid target_closure_layout_valid))

; compile_closure_alloc: source semantics (matches Coq)
(declare-fun source_compile_closure_alloc () Bool)
(declare-fun target_compile_closure_alloc () Bool)
(assert (= source_compile_closure_alloc target_compile_closure_alloc))

; pair_size: source semantics (matches Coq)
(declare-fun source_pair_size () Bool)
(declare-fun target_pair_size () Bool)
(assert (= source_pair_size target_pair_size))

; sum_size: source semantics (matches Coq)
(declare-fun source_sum_size () Bool)
(declare-fun target_sum_size () Bool)
(assert (= source_sum_size target_sum_size))

; pair_fst_offset: source semantics (matches Coq)
(declare-fun source_pair_fst_offset () Bool)
(declare-fun target_pair_fst_offset () Bool)
(assert (= source_pair_fst_offset target_pair_fst_offset))

; pair_snd_offset: source semantics (matches Coq)
(declare-fun source_pair_snd_offset () Bool)
(declare-fun target_pair_snd_offset () Bool)
(assert (= source_pair_snd_offset target_pair_snd_offset))

; sum_tag_valid: source semantics (matches Coq)
(declare-fun source_sum_tag_valid () Bool)
(declare-fun target_sum_tag_valid () Bool)
(assert (= source_sum_tag_valid target_sum_tag_valid))

; wasm_eval_const: translation preserves property (matches Coq: Lemma)
(declare-fun source_wasm_eval_const () Bool)
(declare-fun target_wasm_eval_const () Bool)
(assert (= source_wasm_eval_const target_wasm_eval_const))

; wasm_eval_add: translation preserves property (matches Coq: Lemma)
(declare-fun source_wasm_eval_add () Bool)
(declare-fun target_wasm_eval_add () Bool)
(assert (= source_wasm_eval_add target_wasm_eval_add))

; wasm_eval_mul: translation preserves property (matches Coq: Lemma)
(declare-fun source_wasm_eval_mul () Bool)
(declare-fun target_wasm_eval_mul () Bool)
(assert (= source_wasm_eval_mul target_wasm_eval_mul))

; wasm_001_const_preservation: translation preserves property (matches Coq: Theorem)
(declare-fun source_wasm_001_const_preservation () Bool)
(declare-fun target_wasm_001_const_preservation () Bool)
(assert (= source_wasm_001_const_preservation target_wasm_001_const_preservation))

; wasm_002_ni_preservation: translation preserves property (matches Coq: Theorem)
(declare-fun source_wasm_002_ni_preservation () Bool)
(declare-fun target_wasm_002_ni_preservation () Bool)
(assert (= source_wasm_002_ni_preservation target_wasm_002_ni_preservation))

; wasm_002_memory_separation: translation preserves property (matches Coq: Theorem)
(declare-fun source_wasm_002_memory_separation () Bool)
(declare-fun target_wasm_002_memory_separation () Bool)
(assert (= source_wasm_002_memory_separation target_wasm_002_memory_separation))

; wasm_003_effect_preservation: translation preserves property (matches Coq: Theorem)
(declare-fun source_wasm_003_effect_preservation () Bool)
(declare-fun target_wasm_003_effect_preservation () Bool)
(assert (= source_wasm_003_effect_preservation target_wasm_003_effect_preservation))

; wasm_003_io_self_safe: translation preserves property (matches Coq: Theorem)
(declare-fun source_wasm_003_io_self_safe () Bool)
(declare-fun target_wasm_003_io_self_safe () Bool)
(assert (= source_wasm_003_io_self_safe target_wasm_003_io_self_safe))

; wasm_004_int_type_preserved: translation preserves property (matches Coq: Theorem)
(declare-fun source_wasm_004_int_type_preserved () Bool)
(declare-fun target_wasm_004_int_type_preserved () Bool)
(assert (= source_wasm_004_int_type_preserved target_wasm_004_int_type_preserved))

; wasm_004_add_type_preserved: translation preserves property (matches Coq: Theorem)
(declare-fun source_wasm_004_add_type_preserved () Bool)
(declare-fun target_wasm_004_add_type_preserved () Bool)
(assert (= source_wasm_004_add_type_preserved target_wasm_004_add_type_preserved))

; wasm_004_bool_type_preserved: translation preserves property (matches Coq: Theorem)
(declare-fun source_wasm_004_bool_type_preserved () Bool)
(declare-fun target_wasm_004_bool_type_preserved () Bool)
(assert (= source_wasm_004_bool_type_preserved target_wasm_004_bool_type_preserved))

; wasm_005_disjoint_regions: translation preserves property (matches Coq: Theorem)
(declare-fun source_wasm_005_disjoint_regions () Bool)
(declare-fun target_wasm_005_disjoint_regions () Bool)
(assert (= source_wasm_005_disjoint_regions target_wasm_005_disjoint_regions))

; wasm_005_public_cannot_access_secret: translation preserves property (matches Coq: Theorem)
(declare-fun source_wasm_005_public_cannot_access_secret () Bool)
(declare-fun target_wasm_005_public_cannot_access_secret () Bool)
(assert (= source_wasm_005_public_cannot_access_secret target_wasm_005_public_cannot_access_secret))

; wasm_006_string_const_produces_ptr: translation preserves property (matches Coq: Theorem)
(declare-fun source_wasm_006_string_const_produces_ptr () Bool)
(declare-fun target_wasm_006_string_const_produces_ptr () Bool)
(assert (= source_wasm_006_string_const_produces_ptr target_wasm_006_string_const_produces_ptr))

; wasm_006_string_ptr_is_i32: translation preserves property (matches Coq: Theorem)
(declare-fun source_wasm_006_string_ptr_is_i32 () Bool)
(declare-fun target_wasm_006_string_ptr_is_i32 () Bool)
(assert (= source_wasm_006_string_ptr_is_i32 target_wasm_006_string_ptr_is_i32))

; wasm_006_string_dedup: translation preserves property (matches Coq: Theorem)
(declare-fun source_wasm_006_string_dedup () Bool)
(declare-fun target_wasm_006_string_dedup () Bool)
(assert (= source_wasm_006_string_dedup target_wasm_006_string_dedup))

; wasm_007_closure_layout: translation preserves property (matches Coq: Theorem)
(declare-fun source_wasm_007_closure_layout () Bool)
(declare-fun target_wasm_007_closure_layout () Bool)
(assert (= source_wasm_007_closure_layout target_wasm_007_closure_layout))

; wasm_007_closure_no_overlap: translation preserves property (matches Coq: Theorem)
(declare-fun source_wasm_007_closure_no_overlap () Bool)
(declare-fun target_wasm_007_closure_no_overlap () Bool)
(assert (= source_wasm_007_closure_no_overlap target_wasm_007_closure_no_overlap))

; wasm_007_closure_func_idx_recoverable: translation preserves property (matches Coq: Theorem)
(declare-fun source_wasm_007_closure_func_idx_recoverable () Bool)
(declare-fun target_wasm_007_closure_func_idx_recoverable () Bool)
(assert (= source_wasm_007_closure_func_idx_recoverable target_wasm_007_closure_func_idx_recoverable))

; wasm_008_pair_offsets_disjoint: translation preserves property (matches Coq: Theorem)
(declare-fun source_wasm_008_pair_offsets_disjoint () Bool)
(declare-fun target_wasm_008_pair_offsets_disjoint () Bool)
(assert (= source_wasm_008_pair_offsets_disjoint target_wasm_008_pair_offsets_disjoint))

; wasm_008_pair_fits_in_region: translation preserves property (matches Coq: Theorem)
(declare-fun source_wasm_008_pair_fits_in_region () Bool)
(declare-fun target_wasm_008_pair_fits_in_region () Bool)
(assert (= source_wasm_008_pair_fits_in_region target_wasm_008_pair_fits_in_region))

; wasm_008_sum_tag_determines_branch: translation preserves property (matches Coq: Theorem)
(declare-fun source_wasm_008_sum_tag_determines_branch () Bool)
(declare-fun target_wasm_008_sum_tag_determines_branch () Bool)
(assert (= source_wasm_008_sum_tag_determines_branch target_wasm_008_sum_tag_determines_branch))

; wasm_008_sum_fits_in_region: translation preserves property (matches Coq: Theorem)
(declare-fun source_wasm_008_sum_fits_in_region () Bool)
(declare-fun target_wasm_008_sum_fits_in_region () Bool)
(assert (= source_wasm_008_sum_fits_in_region target_wasm_008_sum_fits_in_region))

; wasm_008_pairs_disjoint: translation preserves property (matches Coq: Theorem)
(declare-fun source_wasm_008_pairs_disjoint () Bool)
(declare-fun target_wasm_008_pairs_disjoint () Bool)
(assert (= source_wasm_008_pairs_disjoint target_wasm_008_pairs_disjoint))

; wasm_009_alloc_returns_current: translation preserves property (matches Coq: Theorem)
(declare-fun source_wasm_009_alloc_returns_current () Bool)
(declare-fun target_wasm_009_alloc_returns_current () Bool)
(assert (= source_wasm_009_alloc_returns_current target_wasm_009_alloc_returns_current))

; wasm_009_alloc_advances_ptr: translation preserves property (matches Coq: Theorem)
(declare-fun source_wasm_009_alloc_advances_ptr () Bool)
(declare-fun target_wasm_009_alloc_advances_ptr () Bool)
(assert (= source_wasm_009_alloc_advances_ptr target_wasm_009_alloc_advances_ptr))

; wasm_009_alloc_preserves_limit: translation preserves property (matches Coq: Theorem)
(declare-fun source_wasm_009_alloc_preserves_limit () Bool)
(declare-fun target_wasm_009_alloc_preserves_limit () Bool)
(assert (= source_wasm_009_alloc_preserves_limit target_wasm_009_alloc_preserves_limit))

; wasm_009_sequential_alloc_disjoint: translation preserves property (matches Coq: Theorem)
(declare-fun source_wasm_009_sequential_alloc_disjoint () Bool)
(declare-fun target_wasm_009_sequential_alloc_disjoint () Bool)
(assert (= source_wasm_009_sequential_alloc_disjoint target_wasm_009_sequential_alloc_disjoint))

; wasm_009_alloc_oom: translation preserves property (matches Coq: Theorem)
(declare-fun source_wasm_009_alloc_oom () Bool)
(declare-fun target_wasm_009_alloc_oom () Bool)
(assert (= source_wasm_009_alloc_oom target_wasm_009_alloc_oom))

; wasm_010_compile_ir_total: translation preserves property (matches Coq: Theorem)
(declare-fun source_wasm_010_compile_ir_total () Bool)
(declare-fun target_wasm_010_compile_ir_total () Bool)
(assert (= source_wasm_010_compile_ir_total target_wasm_010_compile_ir_total))

; wasm_010_const_translates: translation preserves property (matches Coq: Theorem)
(declare-fun source_wasm_010_const_translates () Bool)
(declare-fun target_wasm_010_const_translates () Bool)
(assert (= source_wasm_010_const_translates target_wasm_010_const_translates))

; wasm_010_var_translates: translation preserves property (matches Coq: Theorem)
(declare-fun source_wasm_010_var_translates () Bool)
(declare-fun target_wasm_010_var_translates () Bool)
(assert (= source_wasm_010_var_translates target_wasm_010_var_translates))

; wasm_010_add_translates: translation preserves property (matches Coq: Theorem)
(declare-fun source_wasm_010_add_translates () Bool)
(declare-fun target_wasm_010_add_translates () Bool)
(assert (= source_wasm_010_add_translates target_wasm_010_add_translates))

; wasm_010_mul_translates: translation preserves property (matches Coq: Theorem)
(declare-fun source_wasm_010_mul_translates () Bool)
(declare-fun target_wasm_010_mul_translates () Bool)
(assert (= source_wasm_010_mul_translates target_wasm_010_mul_translates))

; wasm_010_call_translates: translation preserves property (matches Coq: Theorem)
(declare-fun source_wasm_010_call_translates () Bool)
(declare-fun target_wasm_010_call_translates () Bool)
(assert (= source_wasm_010_call_translates target_wasm_010_call_translates))

; wasm_010_let_translates: translation preserves property (matches Coq: Theorem)
(declare-fun source_wasm_010_let_translates () Bool)
(declare-fun target_wasm_010_let_translates () Bool)
(assert (= source_wasm_010_let_translates target_wasm_010_let_translates))

; wasm_010_if_translates: translation preserves property (matches Coq: Theorem)
(declare-fun source_wasm_010_if_translates () Bool)
(declare-fun target_wasm_010_if_translates () Bool)
(assert (= source_wasm_010_if_translates target_wasm_010_if_translates))

; wasm_010_load_translates: translation preserves property (matches Coq: Theorem)
(declare-fun source_wasm_010_load_translates () Bool)
(declare-fun target_wasm_010_load_translates () Bool)
(assert (= source_wasm_010_load_translates target_wasm_010_load_translates))

; wasm_010_store_translates: translation preserves property (matches Coq: Theorem)
(declare-fun source_wasm_010_store_translates () Bool)
(declare-fun target_wasm_010_store_translates () Bool)
(assert (= source_wasm_010_store_translates target_wasm_010_store_translates))

; app_ne_nil_r: translation preserves property (matches Coq: Lemma)
(declare-fun source_app_ne_nil_r () Bool)
(declare-fun target_app_ne_nil_r () Bool)
(assert (= source_app_ne_nil_r target_app_ne_nil_r))

; singleton_ne_nil: translation preserves property (matches Coq: Lemma)
(declare-fun source_singleton_ne_nil () Bool)
(declare-fun target_singleton_ne_nil () Bool)
(assert (= source_singleton_ne_nil target_singleton_ne_nil))

; cons_ne_nil: translation preserves property (matches Coq: Lemma)
(declare-fun source_cons_ne_nil () Bool)
(declare-fun target_cons_ne_nil () Bool)
(assert (= source_cons_ne_nil target_cons_ne_nil))

; wasm_010_completeness: translation preserves property (matches Coq: Theorem)
(declare-fun source_wasm_010_completeness () Bool)
(declare-fun target_wasm_010_completeness () Bool)
(assert (= source_wasm_010_completeness target_wasm_010_completeness))

; Verify all translation validations are satisfiable
(check-sat)
(exit)
